70 300 15 15 32 25 47 26 18 28 19 40 32 13 21 27 28 29 31 24 37 24 46 28 35 21 48 13 44 21 34 21 21 39 27 44 15 23 21 23 43 30 14 24 35 28 41 12 49 24 27 35 38 22 12 22 35 50 25 28 21 10 40 34 41 16 27 46 31 38 21 23 